DIMACS2
40 167 232 79 66 277 231 50 215 194 34 102 267 301 77 117 82 3 278 218 269 244 233 298 292 157 49 226 314 139 250 29 291 18 182 32 222 136 302 200 31
p edge 320 1906
e 0 205 1.0
e 1 255 1.0
e 2 137 1.0
e 2 299 1.0
e 3 11 8.0
e 3 58 35.0
e 3 193 17.0
e 3 148 32.0
e 3 206 38.0
e 3 218 38.0
e 3 105 33.0
e 3 158 21.0
e 3 0 36.0
e 3 262 28.0
e 3 9 35.0
e 3 284 35.0
e 3 4 3.0
e 3 41 19.0
e 3 119 11.0
e 3 201 27.0
e 3 67 28.0
e 3 163 40.0
e 3 61 38.0
e 3 135 42.0
e 3 261 10.0
e 3 285 9.0
e 3 306 37.0
e 3 247 2.0
e 3 302 33.0
e 3 182 37.0
e 3 43 5.0
e 3 125 11.0
e 3 91 42.0
e 3 169 49.0
e 3 62 24.0
e 3 316 12.0
e 3 276 1.0
e 3 37 9.0
e 3 147 23.0
e 3 16 45.0
e 3 199 2.0
e 3 126 8.0
e 3 283 7.0
e 3 215 39.0
e 3 190 36.0
e 4 50 47.0
e 4 135 1.0
e 4 88 2.0
e 4 243 6.0
e 4 158 6.0
e 4 188 5.0
e 4 258 5.0
e 4 305 5.0
e 5 120 1.0
e 6 53 10.0
e 6 259 12.0
e 6 263 1.0
e 6 72 8.0
e 6 35 3.0
e 6 115 10.0
e 6 212 4.0
e 6 86 7.0
e 6 54 9.0
e 7 113 1.0
e 7 278 9.0
e 7 276 1.0
e 8 232 26.0
e 8 313 1.0
e 8 77 17.0
e 8 64 3.0
e 8 25 5.0
e 8 282 1.0
e 8 235 12.0
e 8 263 1.0
e 8 21 9.0
e 8 314 24.0
e 9 113 1.0
e 10 265 1.0
e 11 128 1.0
e 12 102 1.0
e 12 34 18.0
e 12 232 44.0
e 12 244 9.0
e 12 93 10.0
e 12 220 10.0
e 12 311 6.0
e 12 86 1.0
e 12 272 9.0
e 13 160 1.0
e 13 85 1.0
e 14 36 1.0
e 14 246 2.0
e 15 243 1.0
e 16 96 1.0
e 17 163 1.0
e 18 6 2.0
e 18 87 31.0
e 18 110 38.0
e 18 269 26.0
e 18 291 39.0
e 18 189 30.0
e 18 174 19.0
e 18 50 15.0
e 18 97 22.0
e 18 79 39.0
e 18 62 34.0
e 18 238 4.0
e 18 208 35.0
e 18 3 1.0
e 18 247 30.0
e 18 239 21.0
e 18 171 4.0
e 18 197 8.0
e 18 229 43.0
e 18 153 37.0
e 18 154 40.0
e 18 216 32.0
e 18 304 25.0
e 18 9 38.0
e 18 7 41.0
e 18 262 35.0
e 18 205 29.0
e 18 54 30.0
e 18 297 27.0
e 18 130 35.0
e 18 95 41.0
e 18 146 43.0
e 18 75 27.0
e 18 0 16.0
e 18 81 17.0
e 18 104 5.0
e 18 307 48.0
e 18 298 32.0
e 18 101 26.0
e 18 103 39.0
e 18 215 7.0
e 19 63 1.0
e 19 270 1.0
e 20 151 1.0
e 21 90 1.0
e 22 25 1.0
e 23 195 1.0
e 23 184 2.0
e 24 39 1.0
e 24 183 2.0
e 25 156 1.0
e 26 230 1.0
e 27 8 2.0
e 27 263 1.0
e 28 209 1.0
e 28 261 2.0
e 28 222 41.0
e 29 144 36.0
e 29 4 14.0
e 29 61 19.0
e 29 301 14.0
e 29 188 28.0
e 29 195 2.0
e 29 247 20.0
e 29 285 28.0
e 29 127 13.0
e 29 291 12.0
e 29 254 13.0
e 29 223 33.0
e 29 271 32.0
e 29 277 12.0
e 29 229 24.0
e 29 117 37.0
e 29 79 7.0
e 29 107 1.0
e 29 217 32.0
e 29 260 49.0
e 29 274 27.0
e 29 31 6.0
e 29 52 3.0
e 29 94 38.0
e 29 77 18.0
e 29 255 20.0
e 29 25 4.0
e 29 21 22.0
e 29 115 4.0
e 29 196 34.0
e 29 198 25.0
e 29 120 11.0
e 29 262 14.0
e 29 75 17.0
e 29 140 14.0
e 29 275 20.0
e 29 9 25.0
e 29 288 34.0
e 29 276 42.0
e 29 95 35.0
e 30 93 1.0
e 30 76 2.0
e 31 303 6.0
e 31 122 6.0
e 31 146 28.0
e 31 68 8.0
e 31 150 14.0
e 31 251 17.0
e 31 75 22.0
e 31 228 31.0
e 31 224 15.0
e 31 55 10.0
e 31 300 48.0
e 31 238 33.0
e 31 7 9.0
e 31 90 11.0
e 31 22 30.0
e 31 157 7.0
e 31 158 37.0
e 31 239 24.0
e 31 318 43.0
e 31 190 11.0
e 31 159 44.0
e 31 114 48.0
e 31 284 13.0
e 31 232 43.0
e 31 177 24.0
e 31 117 44.0
e 31 206 46.0
e 31 160 33.0
e 31 311 33.0
e 31 105 8.0
e 31 252 15.0
e 31 127 49.0
e 31 306 28.0
e 31 59 39.0
e 31 14 48.0
e 31 192 26.0
e 31 23 48.0
e 31 97 1.0
e 32 260 30.0
e 32 232 29.0
e 32 279 1.0
e 32 254 25.0
e 32 40 10.0
e 32 282 43.0
e 32 126 12.0
e 32 223 39.0
e 32 124 27.0
e 32 268 36.0
e 32 269 3.0
e 32 225 5.0
e 32 298 24.0
e 32 227 32.0
e 32 107 39.0
e 32 59 3.0
e 32 4 13.0
e 32 31 24.0
e 32 119 5.0
e 32 299 40.0
e 32 23 35.0
e 32 34 39.0
e 32 154 25.0
e 32 50 12.0
e 32 144 28.0
e 32 57 43.0
e 32 317 9.0
e 32 109 29.0
e 32 121 27.0
e 32 103 21.0
e 32 118 24.0
e 32 180 14.0
e 32 98 29.0
e 32 305 48.0
e 32 76 3.0
e 32 310 47.0
e 32 68 8.0
e 32 252 36.0
e 32 65 3.0
e 32 77 24.0
e 32 2 29.0
e 33 107 1.0
e 33 149 2.0
e 34 93 35.0
e 34 227 41.0
e 34 141 29.0
e 34 135 25.0
e 34 207 4.0
e 34 72 41.0
e 34 142 42.0
e 34 202 44.0
e 34 29 42.0
e 34 224 13.0
e 34 261 39.0
e 34 71 15.0
e 34 125 8.0
e 34 192 23.0
e 34 143 4.0
e 34 9 32.0
e 34 213 12.0
e 34 145 44.0
e 34 56 25.0
e 34 106 4.0
e 34 161 4.0
e 34 8 16.0
e 34 26 34.0
e 34 220 33.0
e 34 287 16.0
e 34 60 28.0
e 34 28 29.0
e 34 77 47.0
e 34 275 35.0
e 34 88 1.0
e 34 198 34.0
e 34 10 11.0
e 34 176 27.0
e 34 271 8.0
e 34 20 22.0
e 34 44 36.0
e 34 307 17.0
e 34 57 32.0
e 34 127 41.0
e 35 63 1.0
e 36 22 1.0
e 37 196 1.0
e 38 170 1.0
e 38 157 37.0
e 39 232 35.0
e 39 181 2.0
e 40 78 1.0
e 41 266 1.0
e 41 289 1.0
e 42 189 2.0
e 42 317 1.0
e 43 143 1.0
e 44 57 1.0
e 45 210 1.0
e 45 7 1.0
e 46 196 1.0
e 47 190 1.0
e 47 238 4.0
e 48 127 1.0
e 48 216 2.0
e 49 190 14.0
e 49 258 40.0
e 49 45 21.0
e 49 105 5.0
e 49 134 29.0
e 49 219 37.0
e 49 94 16.0
e 49 174 39.0
e 49 266 33.0
e 49 260 24.0
e 49 64 12.0
e 49 290 34.0
e 49 62 10.0
e 49 292 19.0
e 49 21 43.0
e 49 212 24.0
e 49 52 22.0
e 49 181 43.0
e 49 291 45.0
e 49 241 9.0
e 49 10 31.0
e 49 24 42.0
e 49 46 38.0
e 49 300 17.0
e 49 208 16.0
e 49 267 9.0
e 49 235 15.0
e 49 96 31.0
e 49 150 11.0
e 49 272 47.0
e 49 294 11.0
e 49 252 24.0
e 49 210 39.0
e 49 310 20.0
e 49 191 5.0
e 49 152 20.0
e 49 18 21.0
e 49 215 8.0
e 49 144 41.0
e 49 121 36.0
e 49 170 48.0
e 50 266 39.0
e 50 120 20.0
e 50 172 36.0
e 50 229 6.0
e 50 17 41.0
e 50 157 4.0
e 50 276 34.0
e 50 237 48.0
e 50 178 36.0
e 50 60 1.0
e 50 277 15.0
e 50 70 33.0
e 50 302 4.0
e 50 74 30.0
e 50 15 15.0
e 50 199 13.0
e 50 236 29.0
e 50 45 1.0
e 50 198 27.0
e 50 154 33.0
e 50 275 30.0
e 50 84 8.0
e 50 85 40.0
e 50 257 44.0
e 50 258 19.0
e 50 292 24.0
e 50 267 22.0
e 50 268 12.0
e 50 38 8.0
e 50 91 34.0
e 50 86 8.0
e 50 19 7.0
e 50 23 41.0
e 50 273 41.0
e 50 304 12.0
e 50 294 11.0
e 50 173 32.0
e 51 276 1.0
e 51 89 2.0
e 52 43 1.0
e 53 140 1.0
e 54 237 1.0
e 55 9 1.0
e 56 150 1.0
e 56 8 12.0
e 57 239 1.0
e 58 31 34.0
e 58 170 9.0
e 58 207 1.0
e 58 52 9.0
e 58 245 12.0
e 58 164 1.0
e 58 209 6.0
e 58 32 2.0
e 58 66 8.0
e 58 276 6.0
e 59 291 49.0
e 60 88 1.0
e 61 65 1.0
e 62 29 31.0
e 62 63 3.0
e 62 184 8.0
e 62 217 1.0
e 62 231 11.0
e 62 238 4.0
e 62 237 3.0
e 63 237 1.0
e 64 46 1.0
e 65 279 1.0
e 66 89 38.0
e 66 103 14.0
e 66 124 36.0
e 66 270 13.0
e 66 150 21.0
e 66 128 14.0
e 66 249 22.0
e 66 271 22.0
e 66 174 40.0
e 66 63 21.0
e 66 185 29.0
e 66 282 30.0
e 66 2 18.0
e 66 119 1.0
e 66 315 31.0
e 66 195 37.0
e 66 51 31.0
e 66 15 25.0
e 66 135 12.0
e 66 318 19.0
e 66 164 47.0
e 66 59 33.0
e 66 319 36.0
e 66 303 48.0
e 66 215 1.0
e 66 3 32.0
e 66 216 5.0
e 66 206 24.0
e 66 171 7.0
e 66 36 23.0
e 66 186 35.0
e 66 136 40.0
e 66 252 47.0
e 66 243 40.0
e 66 18 36.0
e 66 279 37.0
e 66 137 29.0
e 66 305 28.0
e 66 283 8.0
e 66 114 29.0
e 67 230 1.0
e 68 7 4.0
e 69 78 1.0
e 69 167 10.0
e 70 102 31.0
e 71 228 1.0
e 72 87 1.0
e 73 287 1.0
e 73 253 5.0
e 73 51 1.0
e 74 23 1.0
e 75 112 2.0
e 76 98 4.0
e 77 7 12.0
e 77 89 27.0
e 77 250 25.0
e 77 96 35.0
e 77 225 44.0
e 77 85 18.0
e 77 170 31.0
e 77 136 16.0
e 77 245 3.0
e 77 23 13.0
e 77 166 41.0
e 77 82 30.0
e 77 207 14.0
e 77 220 20.0
e 77 171 19.0
e 77 213 31.0
e 77 315 43.0
e 77 231 44.0
e 77 47 3.0
e 77 273 17.0
e 77 116 9.0
e 77 159 3.0
e 77 56 39.0
e 77 266 43.0
e 77 246 19.0
e 77 269 1.0
e 77 9 39.0
e 77 172 2.0
e 77 290 21.0
e 77 179 46.0
e 77 76 10.0
e 77 164 7.0
e 77 81 23.0
e 77 226 27.0
e 77 233 42.0
e 77 208 12.0
e 77 59 16.0
e 78 37 1.0
e 79 296 34.0
e 79 215 38.0
e 79 309 45.0
e 79 275 4.0
e 79 125 37.0
e 79 119 29.0
e 79 189 16.0
e 79 227 31.0
e 79 3 7.0
e 79 90 17.0
e 79 216 41.0
e 79 9 44.0
e 79 316 21.0
e 79 22 23.0
e 79 287 26.0
e 79 42 24.0
e 79 254 7.0
e 79 212 33.0
e 79 132 14.0
e 79 196 17.0
e 79 184 48.0
e 79 280 25.0
e 79 115 36.0
e 79 108 45.0
e 79 228 21.0
e 79 165 10.0
e 79 63 9.0
e 79 45 10.0
e 79 27 3.0
e 79 122 30.0
e 79 116 26.0
e 79 213 31.0
e 79 97 28.0
e 79 202 13.0
e 79 86 41.0
e 79 138 40.0
e 79 230 25.0
e 80 139 23.0
e 80 273 2.0
e 80 299 11.0
e 80 195 2.0
e 80 193 8.0
e 80 66 34.0
e 80 265 1.0
e 80 84 10.0
e 80 310 1.0
e 80 196 1.0
e 80 180 1.0
e 81 26 2.0
e 82 74 10.0
e 82 216 44.0
e 82 111 6.0
e 82 270 10.0
e 82 175 43.0
e 82 9 17.0
e 82 112 14.0
e 82 255 36.0
e 82 140 20.0
e 82 229 5.0
e 82 19 8.0
e 82 122 24.0
e 82 118 28.0
e 82 12 2.0
e 82 48 8.0
e 82 171 7.0
e 82 228 22.0
e 82 43 30.0
e 82 10 33.0
e 82 291 32.0
e 82 232 32.0
e 82 49 12.0
e 82 17 16.0
e 82 272 4.0
e 82 170 28.0
e 82 217 33.0
e 82 24 43.0
e 82 102 24.0
e 82 182 11.0
e 82 187 27.0
e 82 98 42.0
e 82 106 13.0
e 82 268 40.0
e 82 62 17.0
e 82 224 4.0
e 82 123 2.0
e 82 222 28.0
e 82 81 5.0
e 82 225 42.0
e 82 145 7.0
e 83 142 1.0
e 83 261 1.0
e 83 133 1.0
e 84 35 1.0
e 85 105 3.0
e 86 128 1.0
e 87 235 1.0
e 88 256 1.0
e 89 127 1.0
e 90 293 1.0
e 91 278 31.0
e 91 275 3.0
e 91 29 32.0
e 91 141 5.0
e 92 310 1.0
e 92 94 1.0
e 93 279 1.0
e 94 258 1.0
e 95 302 31.0
e 96 297 2.0
e 97 277 1.0
e 97 190 10.0
e 97 213 7.0
e 97 181 7.0
e 97 84 4.0
e 97 49 36.0
e 97 103 7.0
e 98 250 32.0
e 98 57 5.0
e 98 243 1.0
e 99 0 2.0
e 100 50 46.0
e 100 264 1.0
e 100 26 1.0
e 101 15 1.0
e 102 112 2.0
e 102 177 33.0
e 102 198 48.0
e 102 283 29.0
e 102 280 24.0
e 102 267 10.0
e 102 261 11.0
e 102 215 2.0
e 102 220 36.0
e 102 88 30.0
e 102 130 15.0
e 102 178 30.0
e 102 281 33.0
e 102 113 42.0
e 102 61 10.0
e 102 125 2.0
e 102 197 16.0
e 102 99 7.0
e 102 114 18.0
e 102 122 28.0
e 102 192 24.0
e 102 48 33.0
e 102 4 47.0
e 102 92 22.0
e 102 123 27.0
e 102 53 48.0
e 102 303 20.0
e 102 313 14.0
e 102 93 47.0
e 102 182 32.0
e 102 79 36.0
e 102 103 14.0
e 102 47 1.0
e 102 131 8.0
e 102 234 8.0
e 102 316 14.0
e 102 213 24.0
e 102 68 33.0
e 103 6 3.0
e 104 0 1.0
e 105 106 1.0
e 106 200 7.0
e 107 46 1.0
e 108 130 1.0
e 109 247 3.0
e 110 188 2.0
e 111 229 2.0
e 112 96 2.0
e 113 198 2.0
e 114 227 1.0
e 115 199 2.0
e 116 156 1.0
e 117 197 25.0
e 117 118 19.0
e 117 243 37.0
e 117 155 1.0
e 117 87 24.0
e 117 114 46.0
e 117 89 47.0
e 117 60 32.0
e 117 17 32.0
e 117 210 16.0
e 117 259 46.0
e 117 18 13.0
e 117 51 14.0
e 117 294 41.0
e 117 205 42.0
e 117 299 5.0
e 117 301 11.0
e 117 171 26.0
e 117 13 31.0
e 117 310 6.0
e 117 308 20.0
e 117 221 25.0
e 117 10 48.0
e 117 161 47.0
e 117 198 26.0
e 117 207 31.0
e 117 11 46.0
e 117 107 16.0
e 117 91 49.0
e 117 52 26.0
e 117 143 6.0
e 117 170 33.0
e 117 23 8.0
e 117 101 22.0
e 117 260 14.0
e 117 27 31.0
e 117 106 37.0
e 117 102 28.0
e 117 261 40.0
e 118 175 1.0
e 119 105 2.0
e 120 262 1.0
e 121 299 1.0
e 122 318 1.0
e 123 314 47.0
e 123 313 5.0
e 123 255 1.0
e 123 232 1.0
e 124 304 2.0
e 125 189 1.0
e 126 313 1.0
e 127 99 1.0
e 128 282 1.0
e 129 118 1.0
e 129 2 1.0
e 130 70 2.0
e 131 1 1.0
e 132 188 1.0
e 132 138 2.0
e 133 97 8.0
e 134 154 1.0
e 135 127 1.0
e 136 218 34.0
e 136 119 40.0
e 136 80 21.0
e 136 299 35.0
e 136 32 11.0
e 136 220 36.0
e 136 43 15.0
e 136 275 9.0
e 136 59 47.0
e 136 277 30.0
e 136 266 49.0
e 136 112 7.0
e 136 240 46.0
e 136 113 49.0
e 136 61 8.0
e 136 49 25.0
e 136 227 34.0
e 136 93 30.0
e 136 244 24.0
e 136 115 39.0
e 136 213 40.0
e 136 221 19.0
e 136 95 15.0
e 136 13 1.0
e 136 135 34.0
e 136 19 40.0
e 136 85 43.0
e 136 279 35.0
e 136 157 46.0
e 136 172 42.0
e 136 120 14.0
e 136 139 9.0
e 136 137 1.0
e 136 263 4.0
e 136 75 48.0
e 136 207 13.0
e 136 30 12.0
e 136 17 36.0
e 136 297 19.0
e 137 231 46.0
e 138 176 2.0
e 139 99 17.0
e 139 24 14.0
e 139 35 43.0
e 139 243 31.0
e 139 63 42.0
e 139 186 13.0
e 139 46 15.0
e 139 238 17.0
e 139 23 9.0
e 139 236 48.0
e 139 36 27.0
e 139 121 44.0
e 139 0 8.0
e 139 220 7.0
e 139 305 41.0
e 139 84 36.0
e 139 164 41.0
e 139 279 4.0
e 139 207 8.0
e 139 245 6.0
e 139 218 46.0
e 139 310 11.0
e 139 52 1.0
e 139 114 34.0
e 139 187 42.0
e 139 97 12.0
e 139 115 28.0
e 139 43 47.0
e 139 290 7.0
e 139 284 1.0
e 139 266 26.0
e 139 185 42.0
e 139 318 8.0
e 139 232 3.0
e 139 184 47.0
e 139 316 11.0
e 139 100 1.0
e 139 190 46.0
e 140 175 1.0
e 141 284 1.0
e 142 133 2.0
e 143 234 2.0
e 144 17 2.0
e 145 108 1.0
e 146 232 9.0
e 147 67 1.0
e 147 163 1.0
e 148 289 1.0
e 149 196 1.0
e 149 282 2.0
e 150 188 1.0
e 151 206 1.0
e 152 196 1.0
e 153 181 1.0
e 154 203 1.0
e 155 229 1.0
e 156 93 1.0
e 157 24 6.0
e 157 82 34.0
e 157 201 32.0
e 157 245 21.0
e 157 197 46.0
e 157 110 25.0
e 157 140 21.0
e 157 255 39.0
e 157 89 17.0
e 157 249 44.0
e 157 131 10.0
e 157 299 7.0
e 157 53 45.0
e 157 268 46.0
e 157 138 38.0
e 157 41 26.0
e 157 44 15.0
e 157 275 29.0
e 157 73 26.0
e 157 98 24.0
e 157 21 28.0
e 157 293 47.0
e 157 115 28.0
e 157 272 35.0
e 157 148 17.0
e 157 116 45.0
e 157 188 12.0
e 157 196 12.0
e 157 117 17.0
e 157 247 42.0
e 157 264 20.0
e 157 183 21.0
e 157 184 47.0
e 157 175 12.0
e 157 17 9.0
e 157 169 48.0
e 157 167 14.0
e 158 185 12.0
e 158 50 7.0
e 158 12 5.0
e 158 300 4.0
e 158 18 48.0
e 159 284 1.0
e 160 7 6.0
e 161 285 1.0
e 162 9 1.0
e 162 157 8.0
e 163 135 1.0
e 164 42 2.0
e 165 173 2.0
e 166 294 1.0
e 167 2 33.0
e 167 102 24.0
e 167 87 31.0
e 167 298 8.0
e 167 251 26.0
e 167 88 43.0
e 167 299 20.0
e 167 169 23.0
e 167 152 46.0
e 167 68 18.0
e 167 48 1.0
e 167 105 48.0
e 167 4 20.0
e 167 117 19.0
e 167 62 12.0
e 167 116 44.0
e 167 146 5.0
e 167 36 35.0
e 167 166 2.0
e 167 38 23.0
e 167 257 46.0
e 167 86 23.0
e 167 76 44.0
e 167 154 13.0
e 167 16 31.0
e 167 106 37.0
e 167 314 43.0
e 167 133 3.0
e 167 224 8.0
e 167 140 3.0
e 167 135 17.0
e 167 215 23.0
e 167 59 17.0
e 167 6 43.0
e 167 219 9.0
e 167 249 18.0
e 167 162 19.0
e 167 317 48.0
e 167 148 35.0
e 168 220 1.0
e 168 18 35.0
e 169 63 1.0
e 170 210 1.0
e 171 142 1.0
e 172 237 1.0
e 173 216 3.0
e 174 146 1.0
e 175 95 1.0
e 176 217 1.0
e 177 184 1.0
e 178 196 1.0
e 179 115 1.0
e 180 207 1.0
e 181 26 2.0
e 182 79 36.0
e 182 23 32.0
e 182 183 20.0
e 182 122 29.0
e 182 75 45.0
e 182 288 26.0
e 182 141 44.0
e 182 31 7.0
e 182 272 25.0
e 182 279 43.0
e 182 80 37.0
e 182 304 21.0
e 182 61 25.0
e 182 193 12.0
e 182 47 28.0
e 182 206 17.0
e 182 316 4.0
e 182 274 28.0
e 182 188 5.0
e 182 189 8.0
e 182 67 47.0
e 182 181 16.0
e 182 130 44.0
e 182 86 5.0
e 182 127 49.0
e 182 137 14.0
e 182 199 20.0
e 182 269 14.0
e 182 223 32.0
e 182 27 41.0
e 182 311 33.0
e 182 25 33.0
e 182 290 43.0
e 182 36 33.0
e 182 167 27.0
e 182 155 20.0
e 182 129 2.0
e 182 76 34.0
e 183 306 2.0
e 184 237 1.0
e 185 309 1.0
e 186 178 1.0
e 187 4 11.0
e 188 166 2.0
e 189 4 1.0
e 190 280 1.0
e 191 179 1.0
e 192 12 3.0
e 193 135 12.0
e 193 36 12.0
e 193 296 3.0
e 193 308 11.0
e 193 69 12.0
e 193 202 11.0
e 193 77 39.0
e 194 298 6.0
e 194 184 48.0
e 194 99 7.0
e 194 58 16.0
e 194 42 38.0
e 194 13 16.0
e 194 270 3.0
e 194 79 43.0
e 194 210 9.0
e 194 153 22.0
e 194 108 6.0
e 194 57 11.0
e 194 309 29.0
e 194 44 43.0
e 194 85 32.0
e 194 252 2.0
e 194 130 33.0
e 194 4 3.0
e 194 10 16.0
e 194 232 2.0
e 194 71 31.0
e 194 165 2.0
e 194 295 9.0
e 194 233 2.0
e 194 50 9.0
e 194 117 26.0
e 194 276 23.0
e 194 182 2.0
e 194 59 47.0
e 194 120 26.0
e 194 177 48.0
e 194 296 37.0
e 194 36 3.0
e 194 51 28.0
e 194 317 1.0
e 194 197 33.0
e 194 250 45.0
e 194 81 20.0
e 194 1 24.0
e 194 267 32.0
e 194 7 49.0
e 195 153 1.0
e 196 86 1.0
e 197 120 1.0
e 198 60 1.0
e 199 279 2.0
e 200 261 5.0
e 200 116 3.0
e 200 299 41.0
e 200 314 5.0
e 200 87 40.0
e 200 36 33.0
e 200 105 32.0
e 200 110 12.0
e 200 21 34.0
e 200 98 18.0
e 200 317 9.0
e 200 52 29.0
e 200 121 38.0
e 200 148 7.0
e 200 310 40.0
e 200 45 45.0
e 200 234 17.0
e 200 55 48.0
e 200 188 16.0
e 200 162 18.0
e 200 125 46.0
e 200 209 9.0
e 200 222 11.0
e 200 60 33.0
e 200 107 8.0
e 200 191 19.0
e 200 210 43.0
e 200 42 37.0
e 200 104 44.0
e 200 236 12.0
e 200 57 27.0
e 200 202 31.0
e 200 283 27.0
e 200 235 23.0
e 200 63 48.0
e 200 195 48.0
e 200 163 21.0
e 200 164 10.0
e 200 270 32.0
e 201 164 2.0
e 202 258 1.0
e 203 281 1.0
e 204 128 1.0
e 204 278 48.0
e 204 228 1.0
e 205 196 1.0
e 206 79 17.0
e 207 115 1.0
e 208 226 47.0
e 209 215 6.0
e 210 280 1.0
e 211 142 1.0
e 211 266 1.0
e 211 81 1.0
e 212 130 3.0
e 213 217 1.0
e 214 31 22.0
e 214 301 47.0
e 214 133 1.0
e 215 273 39.0
e 215 277 31.0
e 215 121 27.0
e 215 72 36.0
e 215 237 42.0
e 215 89 2.0
e 215 175 43.0
e 215 68 13.0
e 215 43 29.0
e 215 155 38.0
e 215 4 29.0
e 215 236 40.0
e 215 109 49.0
e 215 309 41.0
e 215 84 38.0
e 215 166 33.0
e 215 202 37.0
e 215 61 8.0
e 215 138 15.0
e 215 59 34.0
e 215 123 34.0
e 215 169 38.0
e 215 278 18.0
e 215 269 14.0
e 215 298 27.0
e 215 126 11.0
e 215 205 7.0
e 215 317 3.0
e 215 181 38.0
e 215 241 37.0
e 215 194 29.0
e 215 77 10.0
e 215 81 7.0
e 216 37 1.0
e 217 291 31.0
e 218 110 23.0
e 218 135 30.0
e 218 1 18.0
e 218 107 39.0
e 218 237 8.0
e 218 238 6.0
e 218 115 29.0
e 218 142 21.0
e 218 93 37.0
e 218 311 12.0
e 218 252 3.0
e 218 243 40.0
e 218 170 18.0
e 218 265 46.0
e 218 13 31.0
e 218 297 29.0
e 218 256 6.0
e 218 205 31.0
e 218 14 44.0
e 218 37 21.0
e 218 94 18.0
e 218 204 46.0
e 218 22 24.0
e 218 83 12.0
e 218 155 47.0
e 218 69 43.0
e 218 16 49.0
e 218 111 46.0
e 218 47 40.0
e 218 186 27.0
e 218 134 40.0
e 218 199 32.0
e 218 209 14.0
e 218 76 3.0
e 218 140 41.0
e 219 179 1.0
e 220 287 3.0
e 221 36 1.0
e 222 313 21.0
e 222 76 37.0
e 222 286 21.0
e 222 214 41.0
e 222 213 26.0
e 222 201 10.0
e 222 113 19.0
e 222 83 28.0
e 222 33 4.0
e 222 317 36.0
e 222 275 43.0
e 222 118 36.0
e 222 184 1.0
e 222 58 14.0
e 222 96 18.0
e 222 180 26.0
e 222 165 39.0
e 222 30 39.0
e 222 34 4.0
e 222 4 2.0
e 222 187 12.0
e 222 72 33.0
e 222 99 40.0
e 222 193 30.0
e 222 40 7.0
e 222 288 24.0
e 222 68 12.0
e 222 32 30.0
e 222 207 26.0
e 222 294 2.0
e 222 198 21.0
e 222 117 22.0
e 222 75 23.0
e 222 259 7.0
e 222 161 18.0
e 222 121 25.0
e 222 102 36.0
e 222 37 14.0
e 223 236 1.0
e 224 44 1.0
e 225 237 1.0
e 226 114 15.0
e 226 232 10.0
e 226 279 8.0
e 226 179 47.0
e 226 271 14.0
e 226 120 22.0
e 226 108 33.0
e 226 34 30.0
e 226 209 47.0
e 226 291 21.0
e 226 281 42.0
e 226 299 26.0
e 226 227 3.0
e 226 316 45.0
e 226 3 48.0
e 226 195 12.0
e 226 192 35.0
e 226 125 37.0
e 226 38 16.0
e 226 42 42.0
e 226 288 9.0
e 226 153 42.0
e 226 246 30.0
e 226 247 46.0
e 226 194 46.0
e 226 88 11.0
e 226 248 6.0
e 226 228 40.0
e 226 149 38.0
e 226 101 47.0
e 226 127 30.0
e 226 233 23.0
e 226 145 25.0
e 226 98 22.0
e 226 121 1.0
e 226 294 36.0
e 226 218 45.0
e 226 45 5.0
e 227 9 1.0
e 228 11 2.0
e 229 202 1.0
e 230 164 1.0
e 231 226 2.0
e 231 107 27.0
e 231 100 42.0
e 231 197 3.0
e 231 53 26.0
e 231 232 14.0
e 231 294 38.0
e 231 85 11.0
e 231 15 28.0
e 231 282 34.0
e 231 185 24.0
e 231 317 14.0
e 231 57 34.0
e 231 78 39.0
e 231 98 30.0
e 231 199 18.0
e 231 230 38.0
e 231 12 10.0
e 231 1 31.0
e 231 52 2.0
e 231 5 6.0
e 231 203 16.0
e 231 97 36.0
e 231 253 9.0
e 231 20 14.0
e 231 184 19.0
e 231 147 24.0
e 231 128 14.0
e 231 155 43.0
e 231 146 16.0
e 231 61 38.0
e 231 240 22.0
e 231 124 4.0
e 231 191 6.0
e 231 310 24.0
e 231 140 41.0
e 231 160 48.0
e 231 26 8.0
e 232 238 35.0
e 232 191 42.0
e 232 239 4.0
e 232 47 10.0
e 232 184 6.0
e 232 188 44.0
e 232 107 21.0
e 232 20 33.0
e 232 5 31.0
e 232 292 8.0
e 232 102 28.0
e 232 296 48.0
e 232 129 17.0
e 232 223 41.0
e 232 89 9.0
e 232 38 25.0
e 232 48 15.0
e 232 178 35.0
e 232 200 27.0
e 232 53 42.0
e 232 224 23.0
e 232 22 19.0
e 232 183 14.0
e 232 236 43.0
e 232 303 29.0
e 232 215 46.0
e 232 103 15.0
e 232 27 25.0
e 232 46 18.0
e 233 200 46.0
e 233 231 24.0
e 233 281 13.0
e 233 300 5.0
e 233 161 49.0
e 233 78 28.0
e 233 120 30.0
e 233 230 3.0
e 233 197 18.0
e 233 146 22.0
e 233 232 1.0
e 233 279 27.0
e 233 74 9.0
e 233 67 19.0
e 233 98 13.0
e 233 54 19.0
e 233 20 19.0
e 233 49 25.0
e 233 13 9.0
e 233 103 5.0
e 233 192 36.0
e 233 290 24.0
e 233 198 7.0
e 233 102 32.0
e 233 250 29.0
e 233 26 33.0
e 233 171 20.0
e 233 79 12.0
e 233 97 24.0
e 233 252 11.0
e 233 159 16.0
e 233 99 27.0
e 233 12 2.0
e 233 259 17.0
e 233 307 37.0
e 233 179 18.0
e 233 21 32.0
e 233 70 10.0
e 234 158 9.0
e 235 10 1.0
e 236 225 1.0
e 237 258 1.0
e 238 84 4.0
e 239 213 1.0
e 240 180 1.0
e 241 292 2.0
e 242 187 1.0
e 242 123 1.0
e 243 153 1.0
e 244 93 40.0
e 244 150 36.0
e 244 11 26.0
e 244 233 8.0
e 244 186 1.0
e 244 262 14.0
e 244 208 19.0
e 244 32 12.0
e 244 102 49.0
e 244 84 46.0
e 244 307 36.0
e 244 259 2.0
e 244 293 18.0
e 244 271 36.0
e 244 209 31.0
e 244 272 48.0
e 244 284 5.0
e 244 175 31.0
e 244 215 6.0
e 244 78 49.0
e 244 60 12.0
e 244 58 13.0
e 244 212 33.0
e 244 273 3.0
e 244 183 20.0
e 244 50 36.0
e 244 231 11.0
e 244 45 19.0
e 244 187 4.0
e 244 213 10.0
e 244 222 37.0
e 244 289 32.0
e 244 112 36.0
e 244 119 19.0
e 244 203 26.0
e 244 237 12.0
e 244 225 45.0
e 244 154 19.0
e 245 270 1.0
e 246 238 2.0
e 247 244 7.0
e 248 186 1.0
e 249 165 1.0
e 250 148 39.0
e 250 236 6.0
e 250 307 4.0
e 250 82 27.0
e 250 127 20.0
e 250 160 13.0
e 250 185 7.0
e 250 52 46.0
e 250 20 47.0
e 250 68 6.0
e 250 164 16.0
e 250 87 17.0
e 250 157 41.0
e 250 302 21.0
e 250 216 25.0
e 250 195 42.0
e 250 316 15.0
e 250 227 6.0
e 250 288 43.0
e 250 317 9.0
e 250 242 24.0
e 250 47 36.0
e 250 128 47.0
e 250 124 32.0
e 250 70 22.0
e 250 246 45.0
e 250 204 46.0
e 250 125 20.0
e 250 292 28.0
e 250 121 24.0
e 250 260 43.0
e 250 111 45.0
e 250 188 30.0
e 250 21 36.0
e 250 172 31.0
e 250 291 7.0
e 250 293 25.0
e 251 15 1.0
e 252 161 1.0
e 253 139 25.0
e 253 74 5.0
e 253 300 1.0
e 254 26 2.0
e 255 152 1.0
e 256 57 1.0
e 257 272 1.0
e 258 107 1.0
e 259 20 1.0
e 260 229 2.0
e 261 40 1.0
e 262 254 1.0
e 263 183 1.0
e 264 218 3.0
e 265 253 3.0
e 266 203 1.0
e 267 0 20.0
e 267 78 7.0
e 267 287 32.0
e 267 268 34.0
e 267 200 22.0
e 267 59 5.0
e 267 167 43.0
e 267 7 44.0
e 267 55 35.0
e 267 269 36.0
e 267 8 36.0
e 267 256 14.0
e 267 193 36.0
e 267 185 23.0
e 267 23 35.0
e 267 291 40.0
e 267 252 15.0
e 267 112 37.0
e 267 83 5.0
e 267 247 43.0
e 267 301 5.0
e 267 305 8.0
e 267 108 2.0
e 267 235 20.0
e 267 195 17.0
e 267 159 31.0
e 267 168 23.0
e 267 303 4.0
e 267 1 17.0
e 267 248 43.0
e 267 229 11.0
e 267 171 17.0
e 267 224 23.0
e 267 232 13.0
e 267 85 49.0
e 267 249 47.0
e 267 302 22.0
e 268 218 11.0
e 269 295 19.0
e 269 167 17.0
e 269 23 15.0
e 269 125 34.0
e 269 47 3.0
e 269 244 49.0
e 269 137 32.0
e 269 268 31.0
e 269 40 4.0
e 269 19 5.0
e 269 189 25.0
e 269 71 43.0
e 269 54 2.0
e 269 100 5.0
e 269 180 38.0
e 269 255 7.0
e 269 144 15.0
e 269 259 27.0
e 269 219 42.0
e 269 44 43.0
e 269 98 45.0
e 269 278 30.0
e 269 289 26.0
e 269 243 43.0
e 269 12 41.0
e 269 126 28.0
e 269 280 8.0
e 269 234 43.0
e 269 119 29.0
e 269 286 7.0
e 269 293 28.0
e 269 146 37.0
e 269 99 14.0
e 269 150 34.0
e 269 133 48.0
e 270 225 1.0
e 271 294 2.0
e 272 133 1.0
e 273 284 1.0
e 274 71 1.0
e 275 171 2.0
e 276 150 1.0
e 277 289 27.0
e 277 207 3.0
e 277 7 11.0
e 277 0 43.0
e 277 55 35.0
e 277 159 14.0
e 277 127 16.0
e 277 39 10.0
e 277 235 10.0
e 277 294 1.0
e 277 56 42.0
e 277 172 38.0
e 277 106 17.0
e 277 68 6.0
e 277 28 32.0
e 277 84 5.0
e 277 311 24.0
e 277 254 6.0
e 277 161 1.0
e 277 241 43.0
e 277 87 41.0
e 277 26 6.0
e 277 169 31.0
e 277 189 45.0
e 277 41 1.0
e 277 22 5.0
e 277 234 38.0
e 277 133 31.0
e 277 190 45.0
e 277 219 36.0
e 277 82 44.0
e 277 202 2.0
e 277 243 4.0
e 277 188 14.0
e 277 85 14.0
e 277 273 38.0
e 278 60 37.0
e 278 76 40.0
e 278 251 34.0
e 278 241 3.0
e 278 44 27.0
e 278 48 23.0
e 278 89 9.0
e 278 197 37.0
e 278 82 35.0
e 278 238 17.0
e 278 46 8.0
e 278 103 20.0
e 278 185 26.0
e 278 31 12.0
e 278 173 44.0
e 278 217 38.0
e 278 290 20.0
e 278 270 11.0
e 278 282 45.0
e 278 47 9.0
e 278 61 22.0
e 278 304 17.0
e 278 149 28.0
e 278 120 4.0
e 278 51 13.0
e 278 298 45.0
e 278 193 49.0
e 278 281 2.0
e 278 62 24.0
e 278 8 5.0
e 278 75 1.0
e 278 74 47.0
e 278 84 49.0
e 278 96 4.0
e 278 311 37.0
e 279 171 1.0
e 280 218 29.0
e 281 5 1.0
e 282 26 1.0
e 283 169 1.0
e 284 199 1.0
e 285 22 2.0
e 286 20 1.0
e 287 246 1.0
e 288 78 1.0
e 289 112 1.0
e 290 86 1.0
e 291 65 33.0
e 291 76 15.0
e 291 240 36.0
e 291 246 25.0
e 291 262 2.0
e 291 125 35.0
e 291 63 24.0
e 291 296 14.0
e 291 15 45.0
e 291 110 11.0
e 291 115 11.0
e 291 272 47.0
e 291 25 3.0
e 291 219 3.0
e 291 206 14.0
e 291 209 39.0
e 291 303 37.0
e 291 77 11.0
e 291 69 34.0
e 291 168 3.0
e 291 73 12.0
e 291 156 25.0
e 291 202 10.0
e 291 129 47.0
e 291 112 15.0
e 291 67 9.0
e 291 89 5.0
e 291 96 35.0
e 291 154 31.0
e 291 103 3.0
e 291 151 13.0
e 291 88 20.0
e 292 158 42.0
e 292 77 31.0
e 292 308 27.0
e 292 154 1.0
e 292 123 35.0
e 292 314 25.0
e 292 269 9.0
e 292 30 22.0
e 292 223 31.0
e 292 75 34.0
e 292 300 10.0
e 292 12 4.0
e 292 25 13.0
e 292 189 21.0
e 292 163 32.0
e 292 304 36.0
e 292 167 31.0
e 292 288 42.0
e 292 138 13.0
e 292 6 29.0
e 292 181 11.0
e 292 252 44.0
e 292 76 23.0
e 292 96 2.0
e 292 91 25.0
e 292 152 12.0
e 292 193 8.0
e 292 130 13.0
e 292 119 16.0
e 292 230 42.0
e 292 172 11.0
e 292 26 3.0
e 292 104 30.0
e 292 305 39.0
e 292 51 6.0
e 292 155 9.0
e 293 81 1.0
e 294 158 10.0
e 295 166 1.0
e 296 40 1.0
e 297 119 2.0
e 298 178 14.0
e 298 203 40.0
e 298 46 16.0
e 298 6 30.0
e 298 80 9.0
e 298 266 16.0
e 298 113 49.0
e 298 197 19.0
e 298 219 39.0
e 298 274 42.0
e 298 27 10.0
e 298 112 30.0
e 298 265 41.0
e 298 114 9.0
e 298 54 2.0
e 298 302 22.0
e 298 160 8.0
e 298 247 39.0
e 298 26 49.0
e 298 128 23.0
e 298 283 37.0
e 298 218 46.0
e 298 134 40.0
e 298 190 25.0
e 298 147 38.0
e 298 276 38.0
e 298 137 45.0
e 298 140 47.0
e 298 251 6.0
e 298 121 32.0
e 298 129 30.0
e 298 180 5.0
e 298 2 8.0
e 298 84 20.0
e 298 239 8.0
e 299 183 2.0
e 300 248 1.0
e 301 193 27.0
e 301 243 34.0
e 301 220 36.0
e 301 15 40.0
e 301 174 46.0
e 301 264 32.0
e 301 109 33.0
e 301 175 44.0
e 301 233 45.0
e 301 307 47.0
e 301 208 13.0
e 301 179 8.0
e 301 189 36.0
e 301 256 31.0
e 301 80 35.0
e 301 36 30.0
e 301 206 26.0
e 301 194 45.0
e 301 144 35.0
e 301 81 19.0
e 301 226 35.0
e 301 122 11.0
e 301 27 20.0
e 301 147 28.0
e 301 7 49.0
e 301 51 12.0
e 301 42 33.0
e 301 262 43.0
e 301 231 16.0
e 301 78 10.0
e 301 123 32.0
e 301 106 33.0
e 301 167 13.0
e 301 296 48.0
e 301 4 15.0
e 301 153 37.0
e 301 91 10.0
e 302 223 9.0
e 302 137 23.0
e 302 286 37.0
e 302 62 12.0
e 302 1 14.0
e 302 10 48.0
e 302 16 5.0
e 302 285 49.0
e 302 288 4.0
e 302 134 25.0
e 302 265 12.0
e 302 226 23.0
e 302 98 30.0
e 302 48 22.0
e 302 276 11.0
e 302 300 25.0
e 302 289 8.0
e 302 65 1.0
e 302 296 18.0
e 302 135 36.0
e 302 229 11.0
e 302 29 27.0
e 302 224 9.0
e 302 116 28.0
e 302 30 1.0
e 302 225 27.0
e 302 317 47.0
e 302 144 27.0
e 302 40 27.0
e 302 172 3.0
e 302 170 44.0
e 302 97 3.0
e 302 33 45.0
e 302 49 23.0
e 302 271 33.0
e 303 271 3.0
e 304 12 4.0
e 305 273 1.0
e 306 235 2.0
e 307 130 2.0
e 308 206 1.0
e 309 131 1.0
e 310 88 1.0
e 311 128 1.0
e 312 62 8.0
e 312 238 3.0
e 313 278 30.0
e 314 165 30.0
e 314 24 17.0
e 314 31 22.0
e 314 62 38.0
e 314 230 36.0
e 314 78 28.0
e 314 92 13.0
e 314 180 29.0
e 314 87 39.0
e 314 211 41.0
e 314 132 16.0
e 314 234 16.0
e 314 59 14.0
e 314 197 23.0
e 314 303 29.0
e 314 4 32.0
e 314 274 16.0
e 314 313 10.0
e 314 214 34.0
e 314 182 1.0
e 314 219 46.0
e 314 117 42.0
e 314 5 27.0
e 314 249 49.0
e 314 100 30.0
e 314 54 14.0
e 314 318 48.0
e 314 265 1.0
e 314 28 48.0
e 314 27 15.0
e 314 18 27.0
e 314 6 25.0
e 314 1 2.0
e 314 131 9.0
e 314 65 16.0
e 314 297 8.0
e 315 213 1.0
e 316 225 1.0
e 317 234 1.0
e 318 195 1.0
e 319 295 1.0
e 319 302 45.0
